NAME: tsp10_16
COMMENT: 10-tsp problem (Padberg/Rinaldi)
TYPE: TSP
DIMENSION: 10
EDGE_WEIGHT_TYPE : EUC_2D
NODE_COORD_SECTION
1 9 8
2 20 17
3 37 36
4 15 25
5 32 35
6 27 30
7 17 7
8 8 8
9 10 23
10 4 4
